Normalized Data/p10_13_normalized_splitx10_0.vrp
NAME:p10_13_NORMALIZED_splitx10_
BEST_KNOWN: 0
COMMENT: 0
DIMENSION: 829
CAPACITY: 1000
EDGE_WEIGHT_FORMAT: FUNCTION
EDGE_WEIGHT_TYPE: EXACT_2D
NODE_COORD_SECTION
1 0.00000 0.00000
2 -11 1
3 -11 1
4 -11 1
5 -11 1
6 35 -3
7 35 -3
8 35 -3
9 35 -3
10 35 -3
11 35 -3
12 25 -43
13 25 -43
14 25 -43
15 29 47
16 29 47
17 29 47
18 29 47
19 29 47
20 29 47
21 29 47
22 -8 -5
23 -8 -5
24 -8 -5
25 -8 -5
26 -8 -5
27 -8 -5
28 -8 -5
29 7 38
30 7 38
31 7 38
32 7 38
33 -34 -47
34 -34 -47
35 -34 -47
36 -40 0
37 -40 0
38 -40 0
39 -40 0
40 -40 0
41 -40 0
42 -40 0
43 -19 7
44 -19 7
45 -25 -9
46 -25 -9
47 -25 -9
48 -9 42
49 -9 42
50 -3 44
51 -3 44
52 -3 44
53 -33 16
54 -33 16
55 -33 16
56 -25 -31
57 -25 -31
58 -25 -31
59 -25 -31
60 -25 -31
61 -25 -31
62 28 -18
63 28 -18
64 28 -18
65 28 -18
66 32 20
67 32 20
68 17 -38
69 17 -38
70 17 -38
71 2 22
72 2 22
73 2 22
74 2 22
75 2 22
76 2 22
77 2 22
78 -42 49
79 -42 49
80 -42 49
81 -42 49
82 10 19
83 10 19
84 10 19
85 -9 23
86 -9 23
87 -9 23
88 -9 23
89 25 10
90 25 10
91 25 10
92 25 10
93 25 10
94 25 10
95 -38 45
96 -38 45
97 -38 45
98 -50 11
99 -50 11
100 -50 11
101 -50 11
102 -50 11
103 -50 11
104 -50 11
105 -45 43
106 -45 43
107 -45 43
108 -45 43
109 -45 43
110 -2 11
111 -2 11
112 -2 11
113 -2 11
114 14 9
115 14 9
116 14 9
117 14 9
118 28 -42
119 28 -42
120 28 -42
121 43 7
122 43 7
123 43 7
124 43 7
125 43 7
126 43 7
127 49 48
128 49 48
129 49 48
130 12 -13
131 12 -13
132 12 -13
133 12 -13
134 12 -13
135 12 -13
136 12 -13
137 41 -15
138 41 -15
139 41 -15
140 9 -49
141 9 -49
142 9 -49
143 9 -49
144 9 -49
145 -29 -49
146 -29 -49
147 -29 -49
148 -46 20
149 -46 20
150 -46 20
151 35 -7
152 35 -7
153 35 -7
154 35 -7
155 35 -7
156 35 -7
157 29 -24
158 29 -24
159 29 -24
160 29 -24
161 29 -24
162 29 -24
163 29 -24
164 -3 20
165 -3 20
166 -3 20
167 -3 20
168 -3 20
169 -3 20
170 -3 20
171 23 15
172 23 15
173 23 15
174 21 5
175 21 5
176 -23 17
177 -23 17
178 -23 17
179 -23 17
180 24 -1
181 24 -1
182 24 -1
183 24 -1
184 24 -1
185 24 -1
186 24 -1
187 -26 0
188 -26 0
189 -26 0
190 -26 0
191 -26 0
192 -26 0
193 1 12
194 1 12
195 1 12
196 1 12
197 1 12
198 37 28
199 37 28
200 37 28
201 -30 -11
202 -30 -11
203 -30 -11
204 -30 -11
205 -39 -38
206 -39 -38
207 -39 -38
208 -39 -38
209 -29 -33
210 -29 -33
211 -29 -33
212 -29 -33
213 -29 -33
214 -16 -28
215 -16 -28
216 49 37
217 49 37
218 49 37
219 49 37
220 36 -39
221 36 -39
222 36 -39
223 36 -39
224 34 -3
225 34 -3
226 34 -3
227 34 -3
228 34 -3
229 34 -3
230 5 -38
231 5 -38
232 5 -38
233 5 -38
234 5 -38
235 25 -32
236 25 -32
237 25 -32
238 25 -32
239 25 -32
240 25 -32
241 25 -32
242 -1 12
243 -1 12
244 -1 12
245 -44 -38
246 -44 -38
247 -44 -38
248 -44 -38
249 -44 -38
250 -26 5
251 -26 5
252 -26 5
253 -26 5
254 3 -41
255 3 -41
256 20 -8
257 20 -8
258 20 -8
259 20 -8
260 20 -8
261 -19 5
262 -19 5
263 -19 5
264 8 -11
265 8 -11
266 8 -11
267 8 -11
268 8 -11
269 -8 -1
270 -8 -1
271 24 41
272 24 41
273 24 41
274 -18 -42
275 -18 -42
276 -18 -42
277 -18 -42
278 -18 -42
279 -11 -19
280 -11 -19
281 -11 -19
282 -11 -19
283 -11 -19
284 -11 -19
285 -41 -1
286 -41 -1
287 -41 -1
288 -41 -1
289 36 5
290 36 5
291 36 5
292 36 5
293 36 5
294 23 -48
295 23 -48
296 23 -48
297 34 44
298 34 44
299 34 44
300 7 -40
301 7 -40
302 7 -40
303 7 -40
304 16 -16
305 37 1
306 37 1
307 -47 -38
308 -47 -38
309 -47 -38
310 34 -33
311 34 -33
312 34 -33
313 34 -33
314 34 -33
315 34 -33
316 34 -33
317 2 -5
318 2 -5
319 2 -5
320 -22 7
321 -22 7
322 -22 7
323 -22 7
324 -22 7
325 -22 7
326 50 -37
327 50 -37
328 50 -37
329 50 -37
330 50 -37
331 -7 46
332 -7 46
333 -7 46
334 -7 46
335 -7 46
336 16 5
337 -2 -24
338 -2 -24
339 -2 -24
340 -2 -24
341 -2 -24
342 -36 27
343 -36 27
344 -36 27
345 -36 27
346 -36 27
347 16 49
348 16 49
349 16 49
350 16 49
351 16 49
352 -20 47
353 -20 47
354 -20 47
355 -20 47
356 25 46
357 25 46
358 25 46
359 25 46
360 25 46
361 25 46
362 -47 27
363 -47 27
364 7 14
365 7 14
366 7 14
367 7 14
368 -50 16
369 -50 16
370 -50 16
371 -50 16
372 -50 16
373 -50 16
374 -45 42
375 -45 42
376 -45 42
377 -45 42
378 -45 42
379 -45 42
380 -45 42
381 -32 29
382 -32 29
383 15 18
384 15 18
385 -41 -49
386 -41 -49
387 -41 -49
388 -41 -49
389 -45 25
390 -45 25
391 -45 25
392 -49 -8
393 -49 -8
394 9 37
395 9 37
396 9 37
397 9 37
398 9 37
399 39 48
400 39 48
401 39 48
402 39 48
403 -30 -10
404 -30 -10
405 -30 -10
406 22 37
407 22 37
408 -19 -28
409 -19 -28
410 -19 -28
411 -18 -42
412 -18 -42
413 -18 -42
414 -17 33
415 -17 33
416 -17 33
417 -17 33
418 -17 33
419 -17 33
420 -17 33
421 1 -6
422 1 -6
423 1 -6
424 1 -6
425 1 -6
426 -29 30
427 -29 30
428 17 3
429 17 3
430 17 3
431 17 3
432 17 3
433 -3 14
434 -3 14
435 -3 14
436 -3 14
437 -3 14
438 -3 14
439 42 48
440 42 48
441 42 48
442 42 48
443 42 48
444 42 48
445 42 48
446 48 46
447 48 46
448 48 46
449 -9 9
450 18 40
451 18 40
452 18 40
453 18 40
454 18 40
455 -23 11
456 -23 11
457 -23 11
458 -23 11
459 -22 49
460 -22 49
461 -22 49
462 -22 49
463 -22 49
464 -22 49
465 -30 34
466 -30 34
467 -30 34
468 -11 -45
469 -11 -45
470 -11 -45
471 -11 -45
472 -11 -45
473 -11 -45
474 37 -8
475 37 -8
476 37 -8
477 -25 -5
478 -25 -5
479 -25 -5
480 -25 -5
481 0 -5
482 0 -5
483 0 -5
484 0 -5
485 -30 -1
486 -30 -1
487 -30 -1
488 -30 -1
489 -30 -1
490 17 -44
491 17 -44
492 17 -44
493 17 -44
494 17 -44
495 -4 12
496 -4 12
497 -4 12
498 -4 12
499 34 44
500 34 44
501 34 44
502 34 44
503 34 44
504 34 44
505 -15 -5
506 -15 -5
507 -15 -5
508 -15 -5
509 -17 -15
510 10 14
511 10 14
512 10 14
513 10 14
514 10 14
515 7 40
516 7 40
517 7 40
518 -5 27
519 -5 27
520 -5 27
521 -5 27
522 -5 27
523 -5 27
524 -40 -46
525 -40 -46
526 5 46
527 5 46
528 -29 9
529 -49 -20
530 -49 -20
531 -49 -20
532 24 -24
533 24 -24
534 24 -24
535 24 -24
536 24 -24
537 24 -24
538 -16 22
539 -16 22
540 -16 22
541 -16 22
542 -16 22
543 -16 22
544 36 -29
545 36 -29
546 36 -29
547 -13 19
548 -13 19
549 -13 19
550 10 13
551 10 13
552 10 13
553 10 13
554 10 13
555 10 13
556 -9 -29
557 -9 -29
558 -9 -29
559 -9 -29
560 -9 -29
561 -9 -29
562 -9 -29
563 -27 29
564 -27 29
565 -27 29
566 -27 29
567 -27 29
568 -27 29
569 -3 21
570 -3 21
571 -3 21
572 -3 21
573 -3 21
574 -15 28
575 -15 28
576 -15 28
577 -15 28
578 -15 28
579 -15 28
580 -24 -27
581 -24 -27
582 -24 -27
583 29 14
584 29 14
585 29 14
586 -40 12
587 -40 12
588 14 -16
589 14 -16
590 14 -16
591 -3 8
592 -3 8
593 -3 8
594 -48 41
595 -18 45
596 -18 45
597 18 -8
598 18 -8
599 -32 47
600 -32 47
601 -32 47
602 -39 36
603 -39 36
604 -39 36
605 -29 -12
606 -29 -12
607 -29 -12
608 -29 -12
609 -29 -12
610 25 -7
611 25 -7
612 25 -7
613 25 -7
614 1 -15
615 1 -15
616 14 46
617 14 46
618 14 46
619 30 -10
620 30 -10
621 30 -10
622 1 -13
623 1 -13
624 1 -13
625 46 30
626 46 30
627 46 30
628 -44 13
629 -44 13
630 -44 13
631 -23 2
632 -23 2
633 -23 2
634 -23 2
635 -23 2
636 -15 -41
637 -15 -41
638 -15 -41
639 -15 -41
640 -15 -41
641 48 16
642 48 16
643 48 16
644 48 16
645 48 16
646 48 16
647 5 13
648 5 13
649 5 13
650 5 13
651 -39 -3
652 -39 -3
653 -39 -3
654 -39 -3
655 -39 -3
656 28 -25
657 28 -25
658 28 -25
659 28 -25
660 -30 -37
661 -30 -37
662 -30 -37
663 -30 -37
664 -30 -37
665 -30 -37
666 23 -47
667 23 -47
668 23 -47
669 23 -47
670 23 -47
671 23 -47
672 35 3
673 -38 -44
674 -38 -44
675 -38 -44
676 -38 -44
677 -7 25
678 -7 25
679 -7 25
680 -7 25
681 -7 25
682 8 -33
683 8 -33
684 8 -33
685 8 -33
686 44 39
687 44 39
688 44 39
689 44 39
690 44 39
691 44 39
692 1 16
693 1 16
694 1 16
695 41 22
696 41 22
697 41 22
698 41 22
699 41 22
700 41 22
701 20 -2
702 20 -2
703 20 -2
704 -10 26
705 -10 26
706 -10 26
707 -10 26
708 -10 26
709 -10 26
710 -3 -35
711 -3 -35
712 29 -17
713 29 -17
714 29 -17
715 29 -17
716 29 -17
717 -24 -43
718 -24 -43
719 -24 -43
720 -24 -43
721 -24 -43
722 -2 11
723 -2 11
724 -2 11
725 -23 -36
726 -23 -36
727 -23 -36
728 -23 -36
729 -23 -36
730 -23 -36
731 -23 -36
732 -1 -43
733 -1 -43
734 -1 -43
735 -1 -43
736 -1 -43
737 -1 -43
738 39 18
739 39 18
740 39 18
741 39 18
742 39 18
743 39 18
744 -45 -49
745 -45 -49
746 -45 -49
747 -38 42
748 -38 42
749 -38 42
750 -38 42
751 -1 11
752 -1 11
753 -1 11
754 -1 11
755 -1 11
756 -1 11
757 -35 49
758 -35 49
759 -35 49
760 -35 49
761 -35 49
762 -35 49
763 -35 49
764 42 -45
765 42 -45
766 42 -45
767 -36 41
768 -36 41
769 -36 41
770 -36 41
771 -26 -1
772 -26 -1
773 -26 -1
774 -18 37
775 -18 37
776 -18 37
777 -18 37
778 -18 37
779 -18 37
780 17 -21
781 17 -21
782 17 -21
783 -29 37
784 -29 37
785 -29 37
786 -29 37
787 -29 37
788 -29 37
789 -43 -8
790 -43 -8
791 -43 -8
792 -43 -8
793 -43 -8
794 -43 -8
795 16 4
796 16 4
797 16 4
798 16 4
799 -16 -39
800 -16 -39
801 -16 -39
802 -16 -39
803 -16 -39
804 -16 -39
805 -16 -39
806 -25 10
807 -25 10
808 -25 10
809 -25 10
810 -8 -26
811 -8 -26
812 -8 -26
813 -8 -26
814 6 20
815 6 20
816 37 20
817 37 20
818 -1 -10
819 -1 -10
820 16 -8
821 16 -8
822 16 -8
823 16 -8
824 16 -8
825 29 -35
826 29 -35
827 29 -35
828 29 -35
829 29 -35
DEMAND_SECTION
1 0
2 100
3 10
4 10
5 10
6 200
7 50
8 10
9 10
10 10
11 10
12 200
13 100
14 10
15 200
16 100
17 50
18 10
19 10
20 10
21 10
22 200
23 100
24 50
25 10
26 10
27 10
28 10
29 200
30 100
31 50
32 10
33 200
34 100
35 10
36 200
37 100
38 50
39 10
40 10
41 10
42 10
43 200
44 50
45 200
46 10
47 10
48 200
49 10
50 200
51 200
52 10
53 100
54 50
55 10
56 200
57 200
58 50
59 10
60 10
61 10
62 100
63 50
64 10
65 10
66 200
67 200
68 200
69 10
70 10
71 200
72 100
73 50
74 10
75 10
76 10
77 10
78 200
79 200
80 10
81 10
82 200
83 200
84 10
85 200
86 200
87 50
88 10
89 200
90 50
91 10
92 10
93 10
94 10
95 100
96 10
97 10
98 200
99 100
100 50
101 10
102 10
103 10
104 10
105 200
106 100
107 50
108 10
109 10
110 100
111 50
112 10
113 10
114 200
115 200
116 50
117 10
118 200
119 200
120 100
121 200
122 50
123 10
124 10
125 10
126 10
127 200
128 100
129 50
130 200
131 100
132 50
133 10
134 10
135 10
136 10
137 200
138 50
139 10
140 100
141 10
142 10
143 10
144 10
145 100
146 10
147 10
148 200
149 200
150 10
151 200
152 100
153 10
154 10
155 10
156 10
157 200
158 200
159 50
160 10
161 10
162 10
163 10
164 200
165 200
166 50
167 10
168 10
169 10
170 10
171 200
172 50
173 10
174 200
175 200
176 200
177 10
178 10
179 10
180 200
181 200
182 50
183 10
184 10
185 10
186 10
187 200
188 50
189 10
190 10
191 10
192 10
193 200
194 100
195 10
196 10
197 10
198 100
199 50
200 10
201 200
202 50
203 10
204 10
205 200
206 100
207 50
208 10
209 200
210 10
211 10
212 10
213 10
214 200
215 100
216 200
217 10
218 10
219 10
220 200
221 100
222 10
223 10
224 200
225 100
226 10
227 10
228 10
229 10
230 200
231 200
232 50
233 10
234 10
235 200
236 100
237 50
238 10
239 10
240 10
241 10
242 200
243 100
244 50
245 100
246 10
247 10
248 10
249 10
250 100
251 10
252 10
253 10
254 200
255 200
256 200
257 200
258 10
259 10
260 10
261 200
262 50
263 10
264 200
265 10
266 10
267 10
268 10
269 200
270 10
271 200
272 200
273 50
274 200
275 100
276 10
277 10
278 10
279 200
280 50
281 10
282 10
283 10
284 10
285 200
286 100
287 50
288 10
289 200
290 200
291 10
292 10
293 10
294 200
295 100
296 10
297 100
298 10
299 10
300 200
301 200
302 50
303 10
304 200
305 200
306 100
307 200
308 100
309 10
310 200
311 100
312 50
313 10
314 10
315 10
316 10
317 200
318 50
319 10
320 200
321 200
322 10
323 10
324 10
325 10
326 200
327 200
328 10
329 10
330 10
331 200
332 200
333 50
334 10
335 10
336 200
337 200
338 10
339 10
340 10
341 10
342 100
343 50
344 10
345 10
346 10
347 200
348 10
349 10
350 10
351 10
352 200
353 10
354 10
355 10
356 100
357 50
358 10
359 10
360 10
361 10
362 100
363 50
364 200
365 100
366 10
367 10
368 200
369 100
370 10
371 10
372 10
373 10
374 200
375 100
376 50
377 10
378 10
379 10
380 10
381 200
382 100
383 100
384 50
385 200
386 10
387 10
388 10
389 200
390 10
391 10
392 200
393 10
394 200
395 200
396 10
397 10
398 10
399 100
400 50
401 10
402 10
403 200
404 10
405 10
406 200
407 10
408 200
409 100
410 50
411 200
412 100
413 10
414 200
415 200
416 50
417 10
418 10
419 10
420 10
421 200
422 200
423 50
424 10
425 10
426 200
427 50
428 200
429 200
430 50
431 10
432 10
433 100
434 50
435 10
436 10
437 10
438 10
439 200
440 200
441 50
442 10
443 10
444 10
445 10
446 100
447 50
448 10
449 200
450 100
451 10
452 10
453 10
454 10
455 200
456 100
457 50
458 10
459 200
460 100
461 10
462 10
463 10
464 10
465 200
466 10
467 10
468 100
469 50
470 10
471 10
472 10
473 10
474 200
475 50
476 10
477 100
478 10
479 10
480 10
481 100
482 10
483 10
484 10
485 200
486 50
487 10
488 10
489 10
490 200
491 50
492 10
493 10
494 10
495 200
496 200
497 50
498 10
499 200
500 200
501 10
502 10
503 10
504 10
505 200
506 200
507 50
508 10
509 200
510 200
511 200
512 10
513 10
514 10
515 200
516 200
517 50
518 200
519 200
520 50
521 10
522 10
523 10
524 200
525 50
526 200
527 50
528 200
529 100
530 50
531 10
532 200
533 50
534 10
535 10
536 10
537 10
538 200
539 50
540 10
541 10
542 10
543 10
544 200
545 200
546 50
547 200
548 50
549 10
550 100
551 50
552 10
553 10
554 10
555 10
556 200
557 100
558 50
559 10
560 10
561 10
562 10
563 200
564 100
565 10
566 10
567 10
568 10
569 200
570 200
571 50
572 10
573 10
574 200
575 200
576 50
577 10
578 10
579 10
580 200
581 200
582 100
583 100
584 10
585 10
586 200
587 50
588 200
589 50
590 10
591 100
592 50
593 10
594 200
595 100
596 50
597 200
598 200
599 100
600 50
601 10
602 200
603 50
604 10
605 100
606 50
607 10
608 10
609 10
610 200
611 200
612 10
613 10
614 200
615 100
616 200
617 200
618 10
619 200
620 100
621 10
622 200
623 50
624 10
625 200
626 50
627 10
628 200
629 10
630 10
631 200
632 100
633 10
634 10
635 10
636 100
637 50
638 10
639 10
640 10
641 200
642 200
643 10
644 10
645 10
646 10
647 100
648 50
649 10
650 10
651 200
652 10
653 10
654 10
655 10
656 200
657 200
658 50
659 10
660 100
661 50
662 10
663 10
664 10
665 10
666 200
667 50
668 10
669 10
670 10
671 10
672 200
673 100
674 10
675 10
676 10
677 100
678 50
679 10
680 10
681 10
682 200
683 100
684 10
685 10
686 200
687 200
688 50
689 10
690 10
691 10
692 200
693 100
694 50
695 200
696 100
697 50
698 10
699 10
700 10
701 200
702 200
703 100
704 200
705 100
706 50
707 10
708 10
709 10
710 200
711 50
712 200
713 10
714 10
715 10
716 10
717 200
718 100
719 10
720 10
721 10
722 200
723 100
724 10
725 200
726 100
727 50
728 10
729 10
730 10
731 10
732 100
733 50
734 10
735 10
736 10
737 10
738 200
739 200
740 50
741 10
742 10
743 10
744 100
745 50
746 10
747 100
748 50
749 10
750 10
751 200
752 50
753 10
754 10
755 10
756 10
757 200
758 200
759 50
760 10
761 10
762 10
763 10
764 200
765 50
766 10
767 100
768 10
769 10
770 10
771 100
772 50
773 10
774 200
775 50
776 10
777 10
778 10
779 10
780 200
781 200
782 100
783 200
784 200
785 50
786 10
787 10
788 10
789 200
790 200
791 50
792 10
793 10
794 10
795 200
796 100
797 50
798 10
799 200
800 100
801 50
802 10
803 10
804 10
805 10
806 200
807 10
808 10
809 10
810 200
811 100
812 10
813 10
814 200
815 10
816 200
817 200
818 200
819 10
820 100
821 10
822 10
823 10
824 10
825 100
826 50
827 10
828 10
829 10
DEPOT_SECTION
1
-1
EOF