Normalized Data/p10_13_normalized_splitx10_0.sol
828 -1 4 191 189 190 186 187 188 630 631 633 634 632 260 261 262 -3 2 98 102 103 99 101 97 100 372 371 368 370 367 369 628 629 627 -12 13 11 666 667 669 668 670 665 295 294 293 491 493 492 69 68 -24 21 22 23 25 27 505 507 504 269 268 -26 604 608 605 203 201 202 200 404 403 402 46 45 44 506 -29 525 526 50 51 49 48 47 -30 28 31 516 515 514 395 396 394 -37 39 40 38 35 41 36 286 284 287 285 653 652 654 651 650 -42 323 321 320 324 319 322 456 454 457 455 -43 805 807 808 806 52 585 586 527 252 249 251 250 -54 53 149 147 148 390 389 388 361 362 342 341 -59 58 60 57 55 56 580 581 579 -65 66 815 816 583 582 584 91 89 92 -67 489 490 143 142 140 141 139 253 254 -71 74 70 73 72 75 76 165 169 168 163 164 167 166 592 590 -86 705 704 706 708 776 778 774 773 419 415 414 413 417 418 416 577 576 -87 85 84 707 703 677 679 676 680 678 432 435 434 436 437 433 -112 723 109 110 721 722 111 494 495 496 497 591 -114 113 335 796 795 797 794 -116 115 170 172 171 90 93 88 174 173 -118 117 119 222 219 221 220 314 315 310 311 312 -121 122 123 120 125 124 641 645 640 644 643 642 737 742 740 741 -131 132 133 656 655 156 157 158 160 161 -134 130 129 135 588 587 589 780 303 -155 151 150 154 152 153 7 5 8 9 10 6 224 223 228 225 227 226 -159 162 545 544 543 313 309 240 238 235 234 -178 176 175 177 426 425 566 563 562 567 448 -181 183 179 182 184 180 185 610 609 611 612 -195 192 193 196 194 241 243 242 750 755 751 753 752 754 -197 199 624 626 625 696 699 695 697 698 694 738 739 -198 218 215 216 217 128 126 127 445 447 446 685 -209 211 210 32 33 34 145 146 144 716 718 719 717 720 729 726 725 282 281 -212 208 673 674 672 675 524 523 386 387 384 385 744 745 743 -229 232 302 299 301 300 682 681 683 684 -230 233 231 736 732 731 735 734 733 710 709 339 340 336 338 337 818 -236 239 237 828 827 824 825 826 763 764 765 326 327 329 325 328 658 657 -255 259 258 257 256 597 596 819 822 820 821 823 -264 266 265 267 263 614 613 622 623 621 817 -272 17 20 16 18 15 14 19 499 498 296 503 298 297 501 502 500 -283 278 280 279 508 486 485 487 488 484 770 772 771 -291 290 292 289 288 671 305 304 -306 307 308 244 246 247 245 248 204 207 206 205 664 659 660 661 662 663 -316 317 318 421 422 424 423 420 482 480 483 481 -331 332 334 333 330 461 462 459 353 352 351 354 594 595 777 775 548 -343 345 344 593 105 106 104 108 107 374 376 375 377 378 373 379 603 -381 380 464 466 465 787 783 785 782 784 786 -383 399 398 400 401 443 444 440 438 441 442 439 686 690 689 688 687 -393 397 616 615 617 348 350 347 346 349 449 451 452 450 453 -406 405 358 360 359 356 355 357 270 271 382 549 -407 409 214 213 556 559 560 810 812 811 809 -408 727 728 730 724 412 275 276 277 410 273 411 274 802 804 803 -430 428 431 427 429 701 702 700 -460 463 458 598 599 600 758 762 756 759 757 760 761 769 766 -473 474 475 136 138 137 619 620 618 -479 477 476 478 792 793 790 791 789 788 392 391 528 529 530 607 606 -517 522 519 521 520 518 570 568 569 572 571 -547 546 539 537 541 538 542 540 574 578 573 575 -551 553 82 83 81 813 814 692 693 691 -554 552 550 511 509 510 512 513 365 364 366 363 649 646 647 648 -557 555 558 561 471 470 468 469 467 472 636 639 638 637 635 799 800 801 798 -564 565 767 768 746 748 749 747 95 94 96 78 79 77 80 602 601 -715 714 713 711 712 61 64 63 62 533 536 535 534 531 532 779 781 0 





OBJ=
5235.103
BEST_KNOWN=
0.000